letting n =  10
letting blocks =  [[1, 1], [1, 2], [1, 4], [1, 5], [1, 8], [2, 1], [2, 2], [2, 3], [2, 7], [2, 10], [3, 2], [3, 5], [4, 3], [4, 6], [4, 8], [4, 9], [5, 3], [5, 4], [5, 5], [5, 6], [5, 7], [6, 4], [6, 6], [7, 2], [7, 3], [7, 8], [7, 10], [8, 1], [8, 3], [8, 4], [8, 7], [8, 9], [9, 3], [9, 4], [9, 7], [9, 10], [10, 5], [10, 7], [10, 9], [10, 10]]
